0 3292
4 3265
5 3196
11 3150
14 3136
15 3134
19 3115
22 3091
51 3058
52 3056
56 3028
59 2997
65 2956
71 2939
73 2895
104 2872
193 2845
194 2839
195 2838
196 2837
535 2804
894 2789
1056 2781
1057 2771
1059 2762
1918 2756
2196 2754
2277 2753
2481 2746
2576 2743
2985 2742
